p tw 630 1223
1 584
1 585
2 306
2 307
2 472
2 473
2 576
2 577
3 603
3 604
4 254
4 255
4 623
4 624
5 71
5 334
5 335
5 403
5 404
5 419
5 479
5 480
6 229
6 230
6 415
6 416
6 433
6 434
6 491
6 492
7 518
7 519
8 321
8 322
8 434
8 435
8 503
8 504
9 545
9 546
9 592
9 593
10 561
10 562
11 344
11 345
12 230
12 231
12 435
12 436
12 504
12 505
13 231
13 232
14 365
14 366
15 284
15 285
15 446
15 447
15 557
15 558
16 246
16 247
16 412
16 413
16 488
16 489
17 616
17 617
18 328
18 329
19 336
19 337
20 253
20 254
20 529
20 530
21 227
21 228
22 382
22 383
23 251
23 252
23 528
23 529
24 593
24 594
25 296
25 297
25 417
25 418
25 462
25 463
26 252
26 253
27 278
27 279
28 385
28 386
28 607
28 608
29 302
29 303
30 358
30 359
31 392
31 393
31 570
31 571
32 619
32 620
33 233
33 234
34 299
34 300
34 402
34 403
34 465
34 466
34 478
34 479
35 391
35 392
36 351
36 352
37 234
37 235
38 228
38 229
38 432
38 433
38 502
38 503
39 235
39 236
40 366
40 367
41 307
41 308
42 332
42 333
43 318
43 319
43 588
43 589
44 335
44 336
44 401
44 402
44 477
44 478
45 224
45 225
45 495
45 496
46 341
46 342
46 452
46 453
46 520
46 521
47 342
47 343
47 609
47 610
48 303
48 304
48 626
48 627
49 319
49 320
50 507
50 508
51 289
51 290
52 396
52 397
53 283
53 284
54 62
54 330
54 331
54 416
54 492
55 357
55 358
56 345
56 346
56 456
56 457
57 625
57 626
58 353
58 354
59 562
59 563
60 373
60 374
60 552
60 553
61 266
61 267
62 347
62 348
62 416
62 492
62 615
62 616
63 236
63 237
64 354
64 355
65 322
65 323
65 591
65 592
66 367
66 368
66 411
66 412
66 431
66 432
66 487
66 488
67 395
67 396
67 624
67 625
68 390
68 391
69 291
69 292
69 455
69 456
69 565
69 566
70 629
70 630
71 149
71 216
71 370
71 371
71 419
71 493
71 581
72 327
72 328
72 410
72 411
72 485
72 486
72 510
72 511
73 275
73 276
73 438
73 439
73 546
73 547
74 368
74 369
75 250
75 251
75 404
75 405
75 466
75 467
75 480
75 481
75 527
75 528
76 313
76 314
77 364
77 365
77 537
77 538
77 583
77 584
78 361
78 362
78 531
78 532
78 627
78 628
79 612
79 613
80 100
80 187
80 308
80 309
80 474
80 577
80 578
80 630
81 356
81 357
81 530
81 531
81 622
81 623
82 352
82 353
82 467
82 468
82 526
82 527
83 386
83 387
84 611
84 612
85 614
85 615
86 369
86 370
86 548
86 549
87 261
87 262
88 393
88 394
88 468
88 469
89 315
89 316
89 405
89 406
89 424
89 425
89 481
89 482
89 499
89 500
90 239
90 240
90 414
90 415
90 443
90 444
90 490
90 491
91 282
91 283
91 597
91 598
92 606
92 607
93 326
93 327
94 316
94 317
94 426
94 427
94 501
94 502
95 522
95 523
96 383
96 384
97 288
97 289
98 267
98 268
98 407
98 408
98 483
98 484
99 572
99 573
100 164
100 310
100 311
100 474
100 578
101 277
101 278
102 258
102 259
103 309
103 310
104 384
104 385
105 343
105 344
106 596
106 597
107 586
107 587
108 237
108 238
108 440
108 441
108 509
108 510
109 331
109 332
109 601
109 602
110 587
110 588
111 363
111 364
111 536
111 537
112 269
112 270
112 541
112 542
113 376
113 377
113 441
113 442
113 553
113 554
114 240
114 241
114 514
114 515
115 270
115 271
115 429
115 430
116 223
116 224
116 420
116 421
116 494
116 495
117 508
117 509
118 387
118 388
119 349
119 350
120 274
120 275
120 544
120 545
121 595
121 596
122 257
122 258
122 470
122 471
122 532
122 533
123 582
123 583
124 613
124 614
125 268
125 269
125 428
125 429
125 540
125 541
126 513
126 514
127 602
127 603
128 346
128 347
128 458
128 459
128 523
128 524
129 551
129 552
129 598
129 599
130 293
130 294
131 317
131 318
132 226
132 227
132 423
132 424
132 497
132 498
133 498
133 499
134 320
134 321
135 241
135 242
135 450
135 451
135 516
135 517
136 563
136 564
137 292
137 293
137 409
137 410
137 454
137 455
137 486
137 487
138 279
138 280
139 242
139 243
139 451
139 452
140 225
140 226
140 422
140 423
140 496
140 497
141 245
141 246
141 453
141 454
141 521
141 522
142 271
142 272
142 430
142 431
142 542
142 543
143 305
143 306
143 471
143 472
143 574
143 575
144 388
144 389
145 272
145 273
145 543
145 544
146 590
146 591
147 311
147 312
148 301
148 302
148 469
148 470
148 571
148 572
149 581
150 337
150 338
150 515
150 516
151 333
151 334
151 400
151 401
151 448
151 449
151 476
151 477
151 512
151 513
152 247
152 248
152 459
152 460
152 524
152 525
153 249
153 250
153 463
153 464
154 534
154 535
155 377
155 378
155 444
155 445
155 555
155 556
156 329
156 330
156 600
156 601
157 359
157 360
158 281
158 282
159 264
159 265
160 273
160 274
161 286
161 287
162 559
162 560
163 290
163 291
163 564
163 565
163 608
163 609
164 169
164 397
164 578
165 381
165 382
166 323
166 324
166 436
166 437
166 505
166 506
167 255
167 256
168 262
168 263
168 535
168 536
169 397
169 473
169 474
169 575
169 576
170 232
170 233
170 437
170 438
170 506
170 507
171 298
171 299
172 312
172 313
172 421
172 422
173 338
173 339
173 605
173 606
174 243
174 244
175 589
175 590
176 325
176 326
176 594
176 595
177 618
177 619
178 620
178 621
179 276
179 277
179 547
179 548
180 579
180 580
181 339
181 340
182 378
182 379
182 445
182 446
182 556
182 557
183 260
183 261
184 371
184 372
184 439
184 440
184 549
184 550
185 362
185 363
186 500
186 501
187 259
187 260
187 533
187 534
187 630
188 380
188 381
188 449
188 450
188 560
188 561
189 517
189 518
189 604
189 605
190 295
190 296
190 398
190 399
190 461
190 462
191 374
191 375
192 287
192 288
193 263
193 264
193 425
193 426
193 539
193 540
194 360
194 361
194 408
194 409
194 484
194 485
195 394
195 395
196 568
196 569
197 285
197 286
198 538
198 539
199 372
199 373
200 348
200 349
201 248
201 249
201 617
201 618
202 324
202 325
203 375
203 376
203 442
203 443
203 599
203 600
204 379
204 380
204 447
204 448
204 558
204 559
205 300
205 301
205 621
205 622
206 350
206 351
206 464
206 465
206 525
206 526
207 304
207 305
207 573
207 574
208 314
208 315
209 389
209 390
209 460
209 461
209 567
209 568
210 554
210 555
211 340
211 341
212 294
212 295
212 413
212 414
212 457
212 458
212 489
212 490
212 566
212 567
213 297
213 298
214 585
214 586
215 280
215 281
215 550
215 551
216 265
216 266
216 406
216 407
216 418
216 419
216 427
216 428
216 482
216 483
216 493
216 580
216 581
217 244
217 245
217 519
217 520
217 610
217 611
218 355
218 356
219 399
219 400
219 475
219 476
220 238
220 239
220 511
220 512
221 256
221 257
221 628
221 629
222 569
222 570
223 224
224 225
225 226
226 227
227 228
228 229
229 230
230 231
231 232
232 233
233 234
234 235
235 236
236 237
237 238
238 239
239 240
240 241
241 242
242 243
243 244
244 245
245 246
246 247
247 248
248 249
249 250
250 251
251 252
252 253
253 254
254 255
255 256
256 257
257 258
258 259
259 260
260 261
261 262
262 263
263 264
264 265
265 266
266 267
267 268
268 269
269 270
270 271
271 272
272 273
273 274
274 275
275 276
276 277
277 278
278 279
279 280
280 281
281 282
282 283
283 284
284 285
285 286
286 287
287 288
288 289
289 290
290 291
291 292
292 293
293 294
294 295
295 296
296 297
297 298
298 299
299 300
300 301
301 302
302 303
303 304
304 305
305 306
306 307
307 308
308 309
309 310
310 311
311 312
312 313
313 314
314 315
315 316
316 317
317 318
318 319
319 320
320 321
321 322
322 323
323 324
324 325
325 326
326 327
327 328
328 329
329 330
330 331
331 332
332 333
333 334
334 335
335 336
336 337
337 338
338 339
339 340
340 341
341 342
342 343
343 344
344 345
345 346
346 347
347 348
348 349
349 350
350 351
351 352
352 353
353 354
354 355
355 356
356 357
357 358
358 359
359 360
360 361
361 362
362 363
363 364
364 365
365 366
366 367
367 368
368 369
369 370
370 371
371 372
372 373
373 374
374 375
375 376
376 377
377 378
378 379
379 380
380 381
381 382
382 383
383 384
384 385
385 386
386 387
387 388
388 389
389 390
390 391
391 392
392 393
393 394
394 395
395 396
396 397
398 399
399 400
400 401
401 402
402 403
403 404
404 405
405 406
406 407
407 408
408 409
409 410
410 411
411 412
412 413
413 414
414 415
415 416
417 418
418 419
420 421
421 422
422 423
423 424
424 425
425 426
426 427
427 428
428 429
429 430
430 431
431 432
432 433
433 434
434 435
435 436
436 437
437 438
438 439
439 440
440 441
441 442
442 443
443 444
444 445
445 446
446 447
447 448
448 449
449 450
450 451
451 452
452 453
453 454
454 455
455 456
456 457
457 458
458 459
459 460
460 461
461 462
462 463
463 464
464 465
465 466
466 467
467 468
468 469
469 470
470 471
471 472
472 473
473 474
475 476
476 477
477 478
478 479
479 480
480 481
481 482
482 483
483 484
484 485
485 486
486 487
487 488
488 489
489 490
490 491
491 492
494 495
495 496
496 497
497 498
498 499
499 500
500 501
501 502
502 503
503 504
504 505
505 506
506 507
507 508
508 509
509 510
510 511
511 512
512 513
513 514
514 515
515 516
516 517
517 518
518 519
519 520
520 521
521 522
522 523
523 524
524 525
525 526
526 527
527 528
528 529
529 530
530 531
531 532
532 533
533 534
534 535
535 536
536 537
537 538
538 539
539 540
540 541
541 542
542 543
543 544
544 545
545 546
546 547
547 548
548 549
549 550
550 551
551 552
552 553
553 554
554 555
555 556
556 557
557 558
558 559
559 560
560 561
561 562
562 563
563 564
564 565
565 566
566 567
567 568
568 569
569 570
570 571
571 572
572 573
573 574
574 575
575 576
576 577
577 578
579 580
580 581
582 583
583 584
584 585
585 586
586 587
587 588
588 589
589 590
590 591
591 592
592 593
593 594
594 595
595 596
596 597
597 598
598 599
599 600
600 601
601 602
602 603
603 604
604 605
605 606
606 607
607 608
608 609
609 610
610 611
611 612
612 613
613 614
614 615
615 616
616 617
617 618
618 619
619 620
620 621
621 622
622 623
623 624
624 625
625 626
626 627
627 628
628 629
629 630
